NAME : CMT2X
TYPE : MVRPB
DIMENSION : 76
VEHICLES : 6
CAPACITY : 14000
EDGE_WEIGHT_TYPE : EXACT_2D
NODE_COORD_SECTION
1 40 40
2 22 22
3 36 26
4 21 45
5 45 35
6 55 20
7 33 34
8 50 50
9 55 45
10 26 59
11 40 66
12 55 65
13 35 51
14 62 35
15 62 57
16 62 24
17 21 36
18 33 44
19 9 56
20 62 48
21 66 14
22 44 13
23 26 13
24 11 28
25 7 43
26 17 64
27 41 46
28 55 34
29 35 16
30 52 26
31 43 26
32 31 76
33 22 53
34 26 29
35 50 40
36 55 50
37 54 10
38 60 15
39 47 66
40 30 60
41 30 50
42 12 17
43 15 14
44 16 19
45 21 48
46 50 30
47 51 42
48 50 15
49 48 21
50 12 38
51 15 56
52 29 39
53 54 38
54 55 57
55 67 41
56 10 70
57 6 25
58 65 27
59 40 60
60 70 64
61 64 4
62 36 6
63 30 20
64 20 30
65 15 5
66 50 70
67 57 72
68 45 42
69 38 33
70 50 4
71 66 8
72 59 5
73 35 60
74 27 24
75 40 20
76 40 37
PICKUP_AND_DELIVERY_SECTION
1 0 0 10000000 0 0 0
2 0 0 10000000 0 0 1800
3 0 0 10000000 0 722 1878
4 0 0 10000000 0 587 513
5 0 0 10000000 0 667 2333
6 0 0 10000000 0 1336 764
7 0 0 10000000 0 56 1844
8 0 0 10000000 0 0 1500
9 0 0 10000000 0 291 1309
10 0 0 10000000 0 1622 1278
11 0 0 10000000 0 1024 1576
12 0 0 10000000 0 569 3131
13 0 0 10000000 0 502 1098
14 0 0 10000000 0 523 677
15 0 0 10000000 0 250 2850
16 0 0 10000000 0 490 310
17 0 0 10000000 0 792 1108
18 0 0 10000000 0 500 1500
19 0 0 10000000 0 1091 209
20 0 0 10000000 0 339 1161
21 0 0 10000000 0 1733 467
22 0 0 10000000 0 1973 827
23 0 0 10000000 0 600 600
24 0 0 10000000 0 364 236
25 0 0 10000000 0 2260 440
26 0 0 10000000 0 1028 372
27 0 0 10000000 0 196 1604
28 0 0 10000000 0 649 1051
29 0 0 10000000 0 1574 1326
30 0 0 10000000 0 650 650
31 0 0 10000000 0 870 1330
32 0 0 10000000 0 1480 1020
33 0 0 10000000 0 1638 1162
34 0 0 10000000 0 279 2421
35 0 0 10000000 0 380 1520
36 0 0 10000000 0 91 909
37 0 0 10000000 0 978 222
38 0 0 10000000 0 1050 350
39 0 0 10000000 0 691 1709
40 0 0 10000000 0 800 800
41 0 0 10000000 0 1320 1980
42 0 0 10000000 0 441 1059
43 0 0 10000000 0 73 1027
44 0 0 10000000 0 284 1516
45 0 0 10000000 0 956 744
46 0 0 10000000 0 840 1260
47 0 0 10000000 0 476 2224
48 0 0 10000000 0 1330 570
49 0 0 10000000 0 1125 875
50 0 0 10000000 0 342 158
51 0 0 10000000 0 1611 589
52 0 0 10000000 0 308 892
53 0 0 10000000 0 563 1337
54 0 0 10000000 0 77 2123
55 0 0 10000000 0 621 979
56 0 0 10000000 0 600 100
57 0 0 10000000 0 1976 624
58 0 0 10000000 0 818 582
59 0 0 10000000 0 700 1400
60 0 0 10000000 0 206 2194
61 0 0 10000000 0 1219 81
62 0 0 10000000 0 1250 250
63 0 0 10000000 0 600 1200
64 0 0 10000000 0 367 733
65 0 0 10000000 0 1867 933
66 0 0 10000000 0 257 643
67 0 0 10000000 0 771 2929
68 0 0 10000000 0 200 2800
69 0 0 10000000 0 132 868
70 0 0 10000000 0 736 64
71 0 0 10000000 0 967 133
72 0 0 10000000 0 275 25
73 0 0 10000000 0 42 58
74 0 0 10000000 0 67 533
75 0 0 10000000 0 500 500
76 0 0 10000000 0 150 1850
DEPOT_SECTION
1 
-1
EOF
